89 146 195 159 172 70 91 9 143 129 144 73 188 154 187 31 183 161 133 132 160 16 110 135 179 57 184 198 173 124 49 68 20 116 102 4 186 150 125 152 180 155 191 169 175 193 178 120 167 23 141 182 194 42 181 118 126 196 119 90 131 34 104 10 107 158 190 199 115 93 123 136 38 185 171 166 163 164 111 13 5 58 15 0 47 22 71 28 137 11 27 18 43 29 25 48 14 6 1 19 51 30 2 36 21 33 39 32 24 74 113 44 45 52 8 26 72 76 62 65 50 83 53 59 54 77 108 64 69 84 79 67 41 61 60 46 78 86 88 100 56 105 101 94 82 103 174 122 106 81 92 17 37 66 85 109 140 153 156 168 128 95 35 99 162 75 151 87 97 112 147 96 138 134 165 176 170 177 189 197 192 127 145 3 139 7 55 148 63 117 12 121 149 114 130 157 142 40 98 80 

